data/mip_solutions/chen_grossmann_miller/reduced_transportation/balanced8_gurobi.sol
Elapsed time: 213.99781394
Nodes explored: 12068
Upper bound: 20.0
Lower bound: 20.0
y[0,2]=1
y[0,3]=1
y[1,2]=1
y[1,7]=1
y[2,4]=1
y[2,6]=1
y[2,7]=1
y[3,1]=1
y[3,2]=1
y[4,0]=1
y[4,3]=1
y[4,4]=1
y[5,0]=1
y[5,5]=1
y[5,6]=1
y[6,0]=1
y[7,4]=1
y[7,8]=1
y[8,4]=1
y[9,3]=1
q[0,2,3,3]=10.0
q[0,3,3,3]=2.0
q[0,3,3,4]=8.0
q[0,4,3,4]=20.0
q[0,5,3,5]=10.0
q[0,6,3,7]=10.0
q[0,7,2,7]=17.0
q[0,7,3,7]=16.0
q[0,7,3,9]=7.0
q[0,8,3,8]=20.0
q[0,9,3,9]=70.0
q[0,10,2,10]=40.0
q[0,11,2,11]=6.0
q[0,11,2,14]=4.0
q[0,12,2,12]=30.0
q[0,12,2,13]=7.23497072549e-12
q[0,13,2,13]=1.81214110519e-12
q[0,13,2,14]=10.0
q[1,7,2,7]=8.0
q[1,7,7,7]=59.0
q[1,7,7,9]=13.0
q[1,8,2,8]=10.0
q[1,8,7,8]=30.0
q[1,9,2,9]=55.0
q[1,9,7,9]=85.0
q[1,10,2,10]=25.0
q[1,10,2,12]=16.0
q[1,10,7,10]=39.0
q[1,11,2,11]=19.0
q[1,11,7,11]=0.999999999999
q[1,11,7,12]=7.23966755382e-13
q[1,12,2,12]=29.0
q[1,12,2,13]=30.0
q[1,12,2,14]=1.0
q[1,12,8,15]=4.88644195424e-12
q[1,13,2,13]=20.0
q[2,4,4,4]=20.0
q[2,4,6,5]=10.0
q[2,5,4,5]=15.0
q[2,6,4,6]=5.0
q[2,6,6,6]=9.0
q[2,6,7,7]=1.0
q[2,7,4,7]=20.0
q[2,7,6,7]=36.0
q[2,7,7,7]=4.0
q[2,8,4,8]=10.0
q[2,8,6,8]=18.0
q[2,8,7,8]=2.0
q[2,9,4,9]=7.0
q[2,9,6,9]=84.0
q[2,9,7,9]=14.0
q[2,10,4,11]=2.0
q[2,10,7,10]=25.0
q[2,10,7,12]=33.0
q[2,11,7,11]=15.0
q[2,12,7,12]=15.0
q[3,8,1,9]=10.0
q[3,8,2,8]=40.0
q[3,9,1,9]=55.0
q[3,9,2,9]=120.0
q[3,10,1,10]=52.0
q[3,10,1,11]=13.0
q[3,10,2,10]=35.0
q[3,11,1,13]=25.0
q[3,12,1,12]=39.0
q[3,12,2,14]=36.0
q[3,13,1,13]=1.0
q[3,13,2,14]=49.0
q[3,14,2,14]=25.0
q[4,1,0,1]=15.0
q[4,1,3,3]=14.0
q[4,1,3,5]=5.0
q[4,2,0,2]=15.0
q[4,2,0,4]=2.0
q[4,3,0,3]=15.0
q[4,3,3,3]=2.0
q[4,4,0,4]=6.0
q[4,4,3,4]=28.0
q[4,5,3,5]=13.0
q[4,5,4,5]=4.0
q[4,6,0,6]=3.0
q[4,6,4,6]=14.0
q[4,7,0,7]=12.0
q[4,7,4,7]=56.0
q[4,8,0,8]=6.0
q[4,8,4,8]=28.0
q[4,9,3,9]=119.0
q[4,10,0,10]=32.0
q[4,10,4,10]=36.0
q[4,10,7,10]=6.8191181955e-12
q[4,11,4,11]=17.0
q[4,11,7,12]=5.00932628711e-13
q[5,3,0,4]=8.0
q[5,4,0,4]=14.0
q[5,4,0,5]=2.0
q[5,5,0,5]=0.999999999999
q[5,5,6,5]=7.0
q[5,6,6,6]=8.0
q[5,7,6,7]=32.0
q[5,8,6,8]=16.0
q[5,9,0,9]=21.0
q[5,9,6,9]=35.0
q[5,10,0,10]=16.0
q[5,10,5,10]=16.0
q[5,10,5,12]=1.81188397619e-13
q[5,11,5,11]=8.0
q[5,12,1,13]=1.81188397619e-13
q[5,12,5,12]=24.0
q[5,13,5,13]=16.0
q[6,5,0,5]=12.0
q[6,6,0,6]=12.0
q[6,7,0,7]=48.0
q[6,8,0,8]=24.0
q[6,9,0,9]=84.0
q[6,10,0,10]=12.0
q[7,9,4,9]=126.0
q[7,10,4,10]=40.0
q[7,10,8,15]=32.0
q[7,11,8,15]=18.0
q[7,12,8,15]=54.0
q[8,0,4,0]=76.0
q[8,0,4,1]=38.0
q[8,0,4,2]=19.0
q[8,0,4,3]=19.0
q[8,0,4,4]=18.0
q[9,6,3,6]=28.0
q[9,6,3,7]=86.0
q[9,6,3,8]=36.0
