data/mip_solutions/chen_grossmann_miller/reduced_transportation/balanced8_gurobi.log

Gurobi 6.5.2 (linux64) logging started Thu Jan 25 18:15:33 2018

Changed value of parameter LogFile to data/mip_solutions/chen_grossmann_miller/reduced_transportation/balanced8_gurobi.log
   Prev: gurobi.log  Default: 
Changed value of parameter Threads to 1
   Prev: 0  Min: 0  Max: 1024  Default: 0
Optimize a model with 396 rows, 12332 columns and 36895 nonzeros
Coefficient statistics:
  Matrix range    [1e+00, 5e+02]
  Objective range [1e+00, 1e+00]
  Bounds range    [1e+00, 1e+00]
  RHS range       [1e+00, 2e+02]
Presolve removed 191 rows and 10191 columns
Presolve time: 0.01s
Presolved: 205 rows, 2141 columns, 6251 nonzeros
Variable types: 2059 continuous, 82 integer (82 binary)

Root relaxation: objective 1.275527e+01, 1219 iterations, 0.02 seconds

    Nodes    |    Current Node    |     Objective Bounds      |     Work
 Expl Unexpl |  Obj  Depth IntInf | Incumbent    BestBd   Gap | It/Node Time

     0     0   12.75527    0   23          -   12.75527      -     -    0s
H    0     0                      27.0000000   12.75527  52.8%     -    0s
     0     0   13.58661    0   31   27.00000   13.58661  49.7%     -    0s
     0     0   13.72424    0   29   27.00000   13.72424  49.2%     -    0s
     0     0   14.08457    0   41   27.00000   14.08457  47.8%     -    0s
     0     0   14.62019    0   40   27.00000   14.62019  45.9%     -    0s
     0     0   15.37027    0   42   27.00000   15.37027  43.1%     -    0s
     0     0   15.56571    0   44   27.00000   15.56571  42.3%     -    0s
     0     0   15.93718    0   44   27.00000   15.93718  41.0%     -    0s
     0     0   16.01306    0   47   27.00000   16.01306  40.7%     -    0s
     0     0   16.08470    0   45   27.00000   16.08470  40.4%     -    0s
     0     0   16.11025    0   44   27.00000   16.11025  40.3%     -    0s
     0     0   16.15385    0   47   27.00000   16.15385  40.2%     -    0s
     0     0   16.20305    0   44   27.00000   16.20305  40.0%     -    0s
     0     0   16.27049    0   44   27.00000   16.27049  39.7%     -    0s
     0     0   16.28468    0   48   27.00000   16.28468  39.7%     -    0s
     0     0   16.31054    0   42   27.00000   16.31054  39.6%     -    0s
     0     0   16.32995    0   45   27.00000   16.32995  39.5%     -    0s
     0     0   16.35514    0   43   27.00000   16.35514  39.4%     -    0s
H    0     0                      25.0000000   16.35514  34.6%     -    0s
H    0     0                      24.0000000   16.35514  31.9%     -    0s
     0     2   16.35643    0   43   24.00000   16.35643  31.8%     -    0s
H  255   193                      23.0000000   16.47357  28.4%  90.9    1s
H  404   254                      22.0000000   16.52838  24.9%  94.2    2s
   532   343   17.71385   24   56   22.00000   16.80143  23.6%   102    5s
H  555   339                      21.0000000   17.09873  18.6%  97.8    6s
   657   397   17.68679   14   42   21.00000   17.34599  17.4%   139   10s
  1142   543   18.28351   17   36   21.00000   17.61222  16.1%   150   15s
  1532   673   17.99882   16   43   21.00000   17.74286  15.5%   159   20s
  1930   874   19.71429   29   13   21.00000   17.85392  15.0%   164   25s
  2308  1059   18.40253   21   30   21.00000   17.93587  14.6%   169   30s
  2599  1236   19.56574   27   27   21.00000   17.96608  14.4%   175   35s
  2952  1397   19.02026   24   38   21.00000   18.00000  14.3%   179   40s
  3307  1585   18.96040   28   27   21.00000   18.03230  14.1%   179   45s
  3648  1774     cutoff   29        21.00000   18.06178  14.0%   181   50s
  3942  1934   18.67306   23   30   21.00000   18.09643  13.8%   185   55s
  4247  2071   18.46992   20   43   21.00000   18.10981  13.8%   187   60s
  4553  2210   18.19913   20   34   21.00000   18.12684  13.7%   189   65s
  4848  2365   18.31354   19   35   21.00000   18.14962  13.6%   191   70s
  5157  2498   19.99178   33   14   21.00000   18.16635  13.5%   192   75s
  5448  2630   19.24501   23   34   21.00000   18.19456  13.4%   193   80s
  5780  2765   19.13372   27   33   21.00000   18.21341  13.3%   193   85s
  6094  2900   18.84654   20   33   21.00000   18.22722  13.2%   193   90s
  6383  3002   18.33161   20   33   21.00000   18.23430  13.2%   193   95s
  6689  3169   19.99751   22   24   21.00000   18.24808  13.1%   194  100s
  6961  3283   19.51078   24   36   21.00000   18.25607  13.1%   195  105s
  7263  3409   19.12771   24   35   21.00000   18.27270  13.0%   195  110s
H 7501  1375                      20.0000000   18.27887  8.61%   195  113s
  7568  1377   18.37968   18   30   20.00000   18.28613  8.57%   195  115s
  7810  1394   18.83998   21   35   20.00000   18.30511  8.47%   197  120s
  7995  1371   18.60736   23   38   20.00000   18.32126  8.39%   200  125s
  8195  1364   18.76526   20   33   20.00000   18.34489  8.28%   202  130s
  8422  1351   18.63293   24   31   20.00000   18.36382  8.18%   204  135s
  8641  1340   18.90759   21   22   20.00000   18.38096  8.10%   206  140s
  8814  1312   18.73325   21   29   20.00000   18.40037  8.00%   208  145s
  9015  1280   18.82683   28   37   20.00000   18.42285  7.89%   210  150s
  9231  1246   18.75452   23   32   20.00000   18.44594  7.77%   211  155s
  9429  1196   18.83768   25   30   20.00000   18.47646  7.62%   213  160s
  9653  1136   18.70507   20   40   20.00000   18.50641  7.47%   214  165s
  9854  1086     cutoff   18        20.00000   18.53323  7.33%   216  170s
 10087  1039     cutoff   20        20.00000   18.55980  7.20%   217  175s
 10336   958     cutoff   21        20.00000   18.59856  7.01%   217  180s
 10584   885   18.88671   20   38   20.00000   18.62681  6.87%   218  185s
 10846   771   19.00000   22   27   20.00000   18.66964  6.65%   218  190s
 11075   673     cutoff   24        20.00000   18.70541  6.47%   219  195s
 11306   555     cutoff   24        20.00000   18.75041  6.25%   220  200s
 11527   415     cutoff   27        20.00000   18.80931  5.95%   221  205s
 11877   154   18.92981   24   27   20.00000   18.92981  5.35%   219  210s

Cutting planes:
  Gomory: 1
  Cover: 11
  Implied bound: 430
  MIR: 852
  Flow cover: 540
  Network: 46

Explored 12068 nodes (2657678 simplex iterations) in 213.86 seconds
Thread count was 1 (of 8 available processors)

Optimal solution found (tolerance 4.00e-02)
Best objective 2.000000000000e+01, best bound 2.000000000000e+01, gap 0.0%
